GAMS/HW#6/HW6 (7-1) Rosenberg.gms.log

--- Job HW6 (7-1) Rosenberg.gms Start 10/20/25 13:55:13 51.1.0 2d039df5 WEX-WEI x86 64bit/MS Windows
--- Applying:
    C:\GAMS\51\gmsprmNT.txt
--- GAMS Parameters defined
    Input "C:\Users\bhpar\OneDrive\Documents\School\Fall 2025\System Analysis\CEE-6410-Parker\GAMS\HW#6\HW6 (7-1) Rosenberg.gms"
    PageSize 0
    ScrDir "C:\Users\bhpar\OneDrive\Documents\School\Fall 2025\System Analysis\CEE-6410-Parker\GAMS\HW#6\225a\"
    SysDir C:\GAMS\51\
    LogOption 3
    AppendLog 1
    ErrMsg 1
    ErrorLog 99
    IDE 1
    LstTitleLeftAligned 1
Licensee: Course License                                 G250902+0003Ac-GEN
          Utah State University                                     DCE4709
          225a\gamslice.dat
          node:23533203 mem:32 cores:8 ipport:55366 uses:0@0 v:2           
          Course license for use within the course and related course work
          The expiration date of time-limited license is Dec 31, 2025
System information: 8 physical cores and 32 Gb physical memory detected
GAMS 51.1.0   Copyright (C) 1987-2025 GAMS Development. All rights reserved
--- Starting compilation
--- HW6 (7-1) Rosenberg.gms(127) 3 Mb
--- Starting execution: elapsed 0:00:00.015
--- Generating MIP model ResDesign
--- HW6 (7-1) Rosenberg.gms(120) 4 Mb
---   13 rows  16 columns  38 non-zeroes
---   6 discrete-columns
--- Range statistics (absolute non-zero finite values)
--- RHS       [min, max] : [ 1.000E+00, 6.000E+02] - Zero values observed as well
--- Bound     [min, max] : [ 1.000E+00, 1.000E+00] - Zero values observed as well
--- Matrix    [min, max] : [ 3.333E-01, 1.000E+04]
--- Executing CPLEX (Solvelink=2): elapsed 0:00:00.022

IBM ILOG CPLEX   51.1.0 2d039df5 Sep 13, 2025          WEI x86 64bit/MS Window

*** This solver runs with a community license.
--- GMO setup time: 0.00s
--- GMO memory 0.50 Mb (peak 0.50 Mb)
--- Dictionary memory 0.00 Mb
--- Cplex 22.1.2.0 link memory 0.00 Mb (peak 0.00 Mb)
--- Starting Cplex

Version identifier: 22.1.2.0 | 2024-11-25 | 0edbb82fd
CPXPARAM_Advance                                 0
CPXPARAM_Simplex_Display                         2
CPXPARAM_MIP_Display                             4
CPXPARAM_MIP_Pool_Capacity                       0
CPXPARAM_MIP_Tolerances_AbsMIPGap                0
Generic callback                                 0x50
Found incumbent of value 0.000000 after 0.00 sec. (0.00 ticks)
Tried aggregator 1 time.
MIP Presolve eliminated 5 rows and 7 columns.
MIP Presolve modified 1 coefficients.
Reduced MIP has 7 rows, 9 columns, and 19 nonzeros.
Reduced MIP has 2 binaries, 0 generals, 0 SOSs, and 0 indicators.
Presolve time = 0.00 sec. (0.01 ticks)
Probing fixed 0 vars, tightened 1 bounds.
Probing time = 0.00 sec. (0.00 ticks)
Tried aggregator 2 times.
MIP Presolve eliminated 1 rows and 3 columns.
Aggregator did 2 substitutions.
Reduced MIP has 4 rows, 4 columns, and 9 nonzeros.
Reduced MIP has 2 binaries, 0 generals, 0 SOSs, and 0 indicators.
Presolve time = 0.00 sec. (0.01 ticks)
Probing time = 0.00 sec. (0.00 ticks)
Tried aggregator 1 time.
Reduced MIP has 4 rows, 4 columns, and 9 nonzeros.
Reduced MIP has 2 binaries, 0 generals, 0 SOSs, and 0 indicators.
Presolve time = 0.00 sec. (0.00 ticks)
Probing time = 0.00 sec. (0.00 ticks)
Clique table members: 1.
MIP emphasis: balance optimality and feasibility.
MIP search method: dynamic search.
Parallel mode: deterministic, using up to 16 threads.
Parallel mode: deterministic, using up to 3 threads for parallel tasks at root LP.
Tried aggregator 1 time.
No LP presolve or aggregator reductions.
Presolve time = 0.00 sec. (0.00 ticks)

Iteration      Dual Objective            In Variable           Out Variable
     1           80000.000000                   AREA AreaToSupply(s2) slack
     2           60000.000000               STOR(s1) AreaToSupply(s1) slack
     3           53333.333333            I(res,lev2)  ResCapacity(s1) slack
Root relaxation solution time = 0.00 sec. (0.01 ticks)

        Nodes                                         Cuts/
   Node  Left     Objective  IInf  Best Integer    Best Bound    ItCnt     Gap

*     0+    0                            0.0000    80000.0000              --- 
Found incumbent of value 0.000000 after 0.00 sec. (0.05 ticks)
*     0+    0                        50000.0000    80000.0000            60.00%
Found incumbent of value 50000.000000 after 0.00 sec. (0.05 ticks)
      0     0    53333.3333     1    50000.0000    53333.3333        3    6.67%
      0     0        cutoff          50000.0000                      4     --- 
Elapsed time = 0.01 sec. (0.07 ticks, tree = 0.01 MB)

Root node processing (before b&c):
  Real time             =    0.01 sec. (0.07 ticks)
Parallel b&c, 16 threads:
  Real time             =    0.00 sec. (0.00 ticks)
  Sync time (average)   =    0.00 sec.
  Wait time (average)   =    0.00 sec.
                          ------------
Total (root+branch&cut) =    0.01 sec. (0.07 ticks)

--- MIP status (101): integer optimal solution.
--- Cplex Time: 0.01sec (det. 0.07 ticks)

--- Returning a primal only solution to GAMS (marginals all set to NA).
--- Fixing integer variables and solving final LP...

Version identifier: 22.1.2.0 | 2024-11-25 | 0edbb82fd
CPXPARAM_Advance                                 2
CPXPARAM_Simplex_Display                         2
CPXPARAM_MIP_Display                             4
CPXPARAM_MIP_Pool_Capacity                       0
CPXPARAM_MIP_Tolerances_AbsMIPGap                0
Tried aggregator 1 time.
LP Presolve eliminated 8 rows and 10 columns.
Reduced LP has 4 rows, 6 columns, and 10 nonzeros.
Presolve time = 0.00 sec. (0.01 ticks)
Initializing dual steep norms . . .

Iteration      Dual Objective            In Variable           Out Variable
     1  I           99.999999                   AREA AreaToSupply(s2) slack
     2  I           99.999999               STOR(s1)                REL(s2)
     3  I            0.000000              X(res,s2)               STOR(s1)
     4           50000.000000               STOR(s1) AreaToSupply(s1) slack

--- Fixed MIP status (1): optimal.
--- Cplex Time: 0.00sec (det. 0.02 ticks)


Proven optimal solution
MIP Solution:        50000.000000    (4 iterations, 0 nodes)
Final Solve:         50000.000000    (4 iterations)

Best possible:       50000.000000
Absolute gap:           -0.000000
Relative gap:           -0.000000

--- Reading solution for model ResDesign
--- Executing after solve: elapsed 0:00:00.091
--- HW6 (7-1) Rosenberg.gms(122) 4 Mb
*** Status: Normal completion
--- Job HW6 (7-1) Rosenberg.gms Stop 10/20/25 13:55:14 elapsed 0:00:00.092
